(set-option :auto-config false)
(set-option :produce-unsat-cores false)
(set-option :smt.mbqi.max_iterations 10000000)
(set-option :smt.relevancy 0)
(declare-fun c0 () (_ BitVec 64))
(define-fun e1 () (_ BitVec 64) (_ bv1024 64))
(define-fun e2 () Bool (bvult c0 e1))
(define-fun e3 () (_ BitVec 64) (_ bv0 64))
(define-fun e4 () (_ BitVec 64) (_ bv9223372023968964300 64))
(declare-fun c5 () (_ BitVec 64))
(define-fun e6 () (_ BitVec 64) (bvand e4 c5))
(define-fun e7 () Bool (= e3 e6))
(define-fun e8 () (_ BitVec 64) (bvneg (_ bv820 64)))
(declare-fun c9 () (_ BitVec 64))
(define-fun e10 () (_ BitVec 64) (bvand e8 c9))
(define-fun e11 () Bool (= e3 e10))
(declare-fun c12 () (_ BitVec 64))
(define-fun e13 () (_ BitVec 64) (bvand e8 c12))
(define-fun e14 () Bool (= e3 e13))
(declare-fun c16 () (_ BitVec 64))
(define-fun e17 ((c15 (_ BitVec 64))) (_ BitVec 64) (_ bv1024 64))
(define-fun e18 ((c15 (_ BitVec 64))) Bool (bvult c16 (e17 c15)))
(declare-fun c19 () (_ BitVec 64))
(define-fun e20 ((c15 (_ BitVec 64))) Bool (bvult c19 (e17 c15)))
(define-fun e21 ((c15 (_ BitVec 64))) (_ BitVec 64) (_ bv1 64))
(declare-fun c22 ((_ BitVec 64)) (_ BitVec 64))
(define-fun e23 ((c15 (_ BitVec 64))) (_ BitVec 64) (_ bv16 64))
(define-fun e24 ((c15 (_ BitVec 64))) (_ BitVec 64) (bvmul (e23 c15) c16))
(define-fun e25 ((c15 (_ BitVec 64))) (_ BitVec 64) (bvudiv (e24 c15) (e23 c15)))
(define-fun e26 ((c15 (_ BitVec 64))) (_ BitVec 64) (c22 (e25 c15)))
(define-fun e27 ((c15 (_ BitVec 64))) Bool (= (e21 c15) (e26 c15)))
(define-fun e28 ((c15 (_ BitVec 64))) (_ BitVec 64) (_ bv0 64))
(define-fun e29 ((c15 (_ BitVec 64))) (_ BitVec 64) (bvmul (e23 c15) c19))
(define-fun e30 ((c15 (_ BitVec 64))) (_ BitVec 64) (bvudiv (e29 c15) (e23 c15)))
(define-fun e31 ((c15 (_ BitVec 64))) (_ BitVec 64) (c22 (e30 c15)))
(define-fun e32 ((c15 (_ BitVec 64))) Bool (= (e28 c15) (e31 c15)))
(declare-fun c33 ((_ BitVec 64) (_ BitVec 64)) (_ BitVec 64))
(define-fun e34 ((c15 (_ BitVec 64))) (_ BitVec 64) (_ bv4096 64))
(define-fun e35 ((c15 (_ BitVec 64))) (_ BitVec 64) (bvmul (e34 c15) c16))
(define-fun e36 ((c15 (_ BitVec 64))) (_ BitVec 64) (bvadd (e23 c15) (e35 c15)))
(define-fun e37 ((c15 (_ BitVec 64))) (_ BitVec 64) (bvurem (e36 c15) (e34 c15)))
(define-fun e38 ((c15 (_ BitVec 64))) (_ BitVec 64) (_ bv8 64))
(define-fun e39 ((c15 (_ BitVec 64))) (_ BitVec 64) (bvudiv (e37 c15) (e38 c15)))
(define-fun e40 ((c15 (_ BitVec 64))) (_ BitVec 64) (bvudiv (e36 c15) (e34 c15)))
(define-fun e41 ((c15 (_ BitVec 64))) (_ BitVec 64) (c33 (e39 c15) (e40 c15)))
(define-fun e42 ((c15 (_ BitVec 64))) Bool (= (e28 c15) (e41 c15)))
(define-fun e43 ((c15 (_ BitVec 64))) Bool (and (e18 c15) (e20 c15) (e27 c15) (e32 c15) (e42 c15)))
(define-fun e44 ((c15 (_ BitVec 64))) (_ BitVec 64) (bvadd (e38 c15) (e29 c15)))
(define-fun e45 ((c15 (_ BitVec 64))) (_ BitVec 64) (bvudiv (e44 c15) (e23 c15)))
(define-fun e46 ((c15 (_ BitVec 64))) Bool (= c15 (e45 c15)))
(declare-fun c47 ((_ BitVec 64)) (_ BitVec 64))
(define-fun e48 ((c15 (_ BitVec 64))) (_ BitVec 64) (c47 c15))
(define-fun e49 ((c15 (_ BitVec 64))) (_ BitVec 64) (ite (e46 c15) c16 (e48 c15)))
(define-fun e50 ((c15 (_ BitVec 64))) Bool (not (e18 c15)))
(define-fun e51 ((c15 (_ BitVec 64))) Bool (not (e27 c15)))
(define-fun e52 ((c15 (_ BitVec 64))) Bool (not (e20 c15)))
(define-fun e53 ((c15 (_ BitVec 64))) Bool (not (e32 c15)))
(define-fun e54 ((c15 (_ BitVec 64))) Bool (not (e42 c15)))
(define-fun e55 ((c15 (_ BitVec 64))) Bool (and (e32 c15) (e54 c15)))
(define-fun e56 ((c15 (_ BitVec 64))) Bool (or (e53 c15) (e55 c15)))
(define-fun e57 ((c15 (_ BitVec 64))) Bool (and (e20 c15) (e56 c15)))
(define-fun e58 ((c15 (_ BitVec 64))) Bool (or (e52 c15) (e57 c15)))
(define-fun e59 ((c15 (_ BitVec 64))) Bool (and (e27 c15) (e58 c15)))
(define-fun e60 ((c15 (_ BitVec 64))) Bool (or (e51 c15) (e59 c15)))
(define-fun e61 ((c15 (_ BitVec 64))) Bool (and (e18 c15) (e60 c15)))
(define-fun e62 ((c15 (_ BitVec 64))) Bool (or (e50 c15) (e61 c15)))
(define-fun e63 ((c15 (_ BitVec 64))) (_ BitVec 64) (bvor (ite (e43 c15) (e49 c15) (_ bv0 64)) (ite (e62 c15) (e48 c15) (_ bv0 64))))
(define-fun e64 ((c15 (_ BitVec 64))) Bool (bvult (e63 c15) (e17 c15)))
(define-fun e65 ((c15 (_ BitVec 64))) Bool (bvult c15 (e17 c15)))
(define-fun e66 ((c15 (_ BitVec 64))) Bool (= c15 (e30 c15)))
(define-fun e67 ((c15 (_ BitVec 64))) (_ BitVec 64) (_ bv2 64))
(define-fun e68 ((c15 (_ BitVec 64))) (_ BitVec 64) (c22 c15))
(define-fun e69 ((c15 (_ BitVec 64))) (_ BitVec 64) (ite (e66 c15) (e67 c15) (e68 c15)))
(define-fun e70 ((c15 (_ BitVec 64))) (_ BitVec 64) (bvor (ite (e43 c15) (e69 c15) (_ bv0 64)) (ite (e62 c15) (e68 c15) (_ bv0 64))))
(define-fun e71 ((c15 (_ BitVec 64))) Bool (= (e28 c15) (e70 c15)))
(define-fun e72 ((c15 (_ BitVec 64))) Bool (not (e71 c15)))
(define-fun e73 ((c15 (_ BitVec 64))) Bool (and (e65 c15) (e72 c15)))
(define-fun e74 ((c15 (_ BitVec 64))) Bool (not (e73 c15)))
(define-fun e75 ((c15 (_ BitVec 64))) Bool (or (e64 c15) (e74 c15)))
(define-fun e76 () Bool (forall ((c15 (_ BitVec 64))) (e75 c15)))
(define-fun e77 ((c15 (_ BitVec 64))) (_ BitVec 64) (_ bv264 64))
(define-fun e78 ((c15 (_ BitVec 64))) (_ BitVec 64) (bvmul (e34 c15) c19))
(define-fun e79 ((c15 (_ BitVec 64))) (_ BitVec 64) (bvadd (e77 c15) (e78 c15)))
(define-fun e80 ((c15 (_ BitVec 64))) (_ BitVec 64) (bvurem (e79 c15) (e34 c15)))
(define-fun e81 ((c15 (_ BitVec 64))) (_ BitVec 64) (bvudiv (e80 c15) (e38 c15)))
(define-fun e82 ((c15 (_ BitVec 64))) Bool (= (e28 c15) (e81 c15)))
(define-fun e83 ((c15 (_ BitVec 64))) (_ BitVec 64) (bvudiv (e79 c15) (e34 c15)))
(define-fun e84 ((c15 (_ BitVec 64))) Bool (= c15 (e83 c15)))
(define-fun e85 ((c15 (_ BitVec 64))) Bool (and (e82 c15) (e84 c15)))
(define-fun e86 ((c15 (_ BitVec 64))) (_ BitVec 64) (bvneg (_ bv9223372036854775808 64)))
(define-fun e87 ((c15 (_ BitVec 64))) (_ BitVec 64) (_ bv2147590144 64))
(define-fun e88 ((c15 (_ BitVec 64))) (_ BitVec 64) (_ bv256 64))
(define-fun e89 ((c15 (_ BitVec 64))) (_ BitVec 64) (bvadd (e88 c15) (e78 c15)))
(define-fun e90 ((c15 (_ BitVec 64))) (_ BitVec 64) (bvurem (e89 c15) (e34 c15)))
(define-fun e91 ((c15 (_ BitVec 64))) (_ BitVec 64) (bvudiv (e90 c15) (e38 c15)))
(define-fun e92 ((c15 (_ BitVec 64))) (_ BitVec 64) (bvurem (e35 c15) (e34 c15)))
(define-fun e93 ((c15 (_ BitVec 64))) (_ BitVec 64) (bvudiv (e92 c15) (e38 c15)))
(define-fun e94 ((c15 (_ BitVec 64))) Bool (= (e91 c15) (e93 c15)))
(define-fun e95 ((c15 (_ BitVec 64))) (_ BitVec 64) (bvudiv (e89 c15) (e34 c15)))
(define-fun e96 ((c15 (_ BitVec 64))) (_ BitVec 64) (bvudiv (e35 c15) (e34 c15)))
(define-fun e97 ((c15 (_ BitVec 64))) Bool (= (e95 c15) (e96 c15)))
(define-fun e98 ((c15 (_ BitVec 64))) Bool (and (e94 c15) (e97 c15)))
(declare-fun c99 () (_ BitVec 64))
(define-fun e100 ((c15 (_ BitVec 64))) (_ BitVec 64) (bvadd (e38 c15) (e35 c15)))
(define-fun e101 ((c15 (_ BitVec 64))) (_ BitVec 64) (bvurem (e100 c15) (e34 c15)))
(define-fun e102 ((c15 (_ BitVec 64))) (_ BitVec 64) (bvudiv (e101 c15) (e38 c15)))
(define-fun e103 ((c15 (_ BitVec 64))) Bool (= (e102 c15) (e93 c15)))
(define-fun e104 ((c15 (_ BitVec 64))) (_ BitVec 64) (bvudiv (e100 c15) (e34 c15)))
(define-fun e105 ((c15 (_ BitVec 64))) Bool (= (e104 c15) (e96 c15)))
(define-fun e106 ((c15 (_ BitVec 64))) Bool (and (e103 c15) (e105 c15)))
(define-fun e107 ((c15 (_ BitVec 64))) (_ BitVec 64) (bvurem (e78 c15) (e34 c15)))
(define-fun e108 ((c15 (_ BitVec 64))) (_ BitVec 64) (bvudiv (e107 c15) (e38 c15)))
(define-fun e109 ((c15 (_ BitVec 64))) Bool (bvule (e108 c15) (e102 c15)))
(define-fun e110 ((c15 (_ BitVec 64))) (_ BitVec 64) (_ bv512 64))
(define-fun e111 ((c15 (_ BitVec 64))) (_ BitVec 64) (bvadd (e110 c15) (e108 c15)))
(define-fun e112 ((c15 (_ BitVec 64))) Bool (bvult (e102 c15) (e111 c15)))
(define-fun e113 ((c15 (_ BitVec 64))) Bool (and (e109 c15) (e112 c15)))
(define-fun e114 ((c15 (_ BitVec 64))) (_ BitVec 64) (bvudiv (e78 c15) (e34 c15)))
(define-fun e115 ((c15 (_ BitVec 64))) Bool (= (e114 c15) (e104 c15)))
(define-fun e116 ((c15 (_ BitVec 64))) Bool (and (e113 c15) (e115 c15)))
(define-fun e117 ((c15 (_ BitVec 64))) (_ BitVec 64) (c33 (e102 c15) (e104 c15)))
(define-fun e118 ((c15 (_ BitVec 64))) (_ BitVec 64) (ite (e116 c15) (e28 c15) (e117 c15)))
(define-fun e119 ((c15 (_ BitVec 64))) (_ BitVec 64) (bvadd (e21 c15) (e118 c15)))
(define-fun e120 ((c15 (_ BitVec 64))) Bool (bvule (e108 c15) (e93 c15)))
(define-fun e121 ((c15 (_ BitVec 64))) Bool (bvult (e93 c15) (e111 c15)))
(define-fun e122 ((c15 (_ BitVec 64))) Bool (and (e120 c15) (e121 c15)))
(define-fun e123 ((c15 (_ BitVec 64))) Bool (= (e114 c15) (e96 c15)))
(define-fun e124 ((c15 (_ BitVec 64))) Bool (and (e122 c15) (e123 c15)))
(define-fun e125 ((c15 (_ BitVec 64))) (_ BitVec 64) (c33 (e93 c15) (e96 c15)))
(define-fun e126 ((c15 (_ BitVec 64))) (_ BitVec 64) (ite (e124 c15) (e28 c15) (e125 c15)))
(define-fun e127 ((c15 (_ BitVec 64))) (_ BitVec 64) (ite (e106 c15) (e119 c15) (e126 c15)))
(define-fun e128 ((c15 (_ BitVec 64))) (_ BitVec 64) (ite (e98 c15) c99 (e127 c15)))
(define-fun e129 ((c15 (_ BitVec 64))) (_ BitVec 64) (bvmul (e34 c15) (e128 c15)))
(define-fun e130 ((c15 (_ BitVec 64))) (_ BitVec 64) (bvadd (e87 c15) (e129 c15)))
(define-fun e131 ((c15 (_ BitVec 64))) (_ BitVec 64) (_ bv12 64))
(define-fun e132 ((c15 (_ BitVec 64))) (_ BitVec 64) (bvlshr (e130 c15) (e131 c15)))
(define-fun e133 ((c15 (_ BitVec 64))) (_ BitVec 64) (bvor (e86 c15) (e132 c15)))
(define-fun e134 ((c15 (_ BitVec 64))) Bool (= (e28 c15) (e91 c15)))
(define-fun e135 ((c15 (_ BitVec 64))) Bool (= c15 (e95 c15)))
(define-fun e136 ((c15 (_ BitVec 64))) Bool (and (e134 c15) (e135 c15)))
(define-fun e137 ((c15 (_ BitVec 64))) Bool (= (e28 c15) (e102 c15)))
(define-fun e138 ((c15 (_ BitVec 64))) Bool (= c15 (e104 c15)))
(define-fun e139 ((c15 (_ BitVec 64))) Bool (and (e137 c15) (e138 c15)))
(define-fun e140 ((c15 (_ BitVec 64))) Bool (= (e28 c15) (e108 c15)))
(define-fun e141 ((c15 (_ BitVec 64))) Bool (= (e28 c15) (e111 c15)))
(define-fun e142 ((c15 (_ BitVec 64))) Bool (not (e141 c15)))
(define-fun e143 ((c15 (_ BitVec 64))) Bool (and (e140 c15) (e142 c15)))
(define-fun e144 ((c15 (_ BitVec 64))) Bool (= c15 (e114 c15)))
(define-fun e145 ((c15 (_ BitVec 64))) Bool (and (e143 c15) (e144 c15)))
(define-fun e146 ((c15 (_ BitVec 64))) (_ BitVec 64) (c33 (e28 c15) c15))
(define-fun e147 ((c15 (_ BitVec 64))) (_ BitVec 64) (ite (e145 c15) (e28 c15) (e146 c15)))
(define-fun e148 ((c15 (_ BitVec 64))) (_ BitVec 64) (ite (e139 c15) (e119 c15) (e147 c15)))
(define-fun e149 ((c15 (_ BitVec 64))) (_ BitVec 64) (ite (e136 c15) c99 (e148 c15)))
(define-fun e150 ((c15 (_ BitVec 64))) (_ BitVec 64) (ite (e85 c15) (e133 c15) (e149 c15)))
(define-fun e151 ((c15 (_ BitVec 64))) (_ BitVec 64) (bvor (ite (e43 c15) (e150 c15) (_ bv0 64)) (ite (e62 c15) (e146 c15) (_ bv0 64))))
(define-fun e152 ((c15 (_ BitVec 64))) Bool (bvult (e151 c15) (e17 c15)))
(define-fun e153 ((c15 (_ BitVec 64))) Bool (= (e21 c15) (e70 c15)))
(define-fun e154 ((c15 (_ BitVec 64))) Bool (and (e65 c15) (e153 c15)))
(define-fun e155 ((c15 (_ BitVec 64))) Bool (not (e154 c15)))
(define-fun e156 ((c15 (_ BitVec 64))) Bool (or (e152 c15) (e155 c15)))
(define-fun e157 () Bool (forall ((c15 (_ BitVec 64))) (e156 c15)))
(define-fun e158 ((c15 (_ BitVec 64))) Bool (= c15 (e63 c15)))
(define-fun e159 ((c15 (_ BitVec 64))) Bool (or (e155 c15) (e158 c15)))
(define-fun e160 () Bool (forall ((c15 (_ BitVec 64))) (e159 c15)))
(define-fun e161 ((c15 (_ BitVec 64))) (_ BitVec 64) (_ bv9223372023968964300 64))
(define-fun e162 ((c15 (_ BitVec 64))) (_ BitVec 64) (_ bv40 64))
(define-fun e163 ((c15 (_ BitVec 64))) Bool (= (e162 c15) (e81 c15)))
(define-fun e164 ((c15 (_ BitVec 64))) Bool (and (e84 c15) (e163 c15)))
(define-fun e165 ((c15 (_ BitVec 64))) Bool (= (e162 c15) (e91 c15)))
(define-fun e166 ((c15 (_ BitVec 64))) Bool (and (e135 c15) (e165 c15)))
(define-fun e167 ((c15 (_ BitVec 64))) Bool (= (e162 c15) (e102 c15)))
(define-fun e168 ((c15 (_ BitVec 64))) Bool (and (e138 c15) (e167 c15)))
(define-fun e169 ((c15 (_ BitVec 64))) Bool (bvule (e108 c15) (e162 c15)))
(define-fun e170 ((c15 (_ BitVec 64))) Bool (bvult (e162 c15) (e111 c15)))
(define-fun e171 ((c15 (_ BitVec 64))) Bool (and (e169 c15) (e170 c15)))
(define-fun e172 ((c15 (_ BitVec 64))) Bool (and (e144 c15) (e171 c15)))
(define-fun e173 ((c15 (_ BitVec 64))) (_ BitVec 64) (c33 (e162 c15) c15))
(define-fun e174 ((c15 (_ BitVec 64))) (_ BitVec 64) (ite (e172 c15) (e28 c15) (e173 c15)))
(define-fun e175 ((c15 (_ BitVec 64))) (_ BitVec 64) (ite (e168 c15) (e119 c15) (e174 c15)))
(define-fun e176 ((c15 (_ BitVec 64))) (_ BitVec 64) (ite (e166 c15) c99 (e175 c15)))
(define-fun e177 ((c15 (_ BitVec 64))) (_ BitVec 64) (ite (e164 c15) (e133 c15) (e176 c15)))
(define-fun e178 ((c15 (_ BitVec 64))) (_ BitVec 64) (bvor (ite (e43 c15) (e177 c15) (_ bv0 64)) (ite (e62 c15) (e173 c15) (_ bv0 64))))
(define-fun e179 ((c15 (_ BitVec 64))) (_ BitVec 64) (bvand (e161 c15) (e178 c15)))
(define-fun e180 ((c15 (_ BitVec 64))) Bool (= (e28 c15) (e179 c15)))
(define-fun e181 ((c15 (_ BitVec 64))) (_ BitVec 64) (bvneg (_ bv820 64)))
(define-fun e182 ((c15 (_ BitVec 64))) (_ BitVec 64) (_ bv42 64))
(define-fun e183 ((c15 (_ BitVec 64))) Bool (= (e182 c15) (e81 c15)))
(define-fun e184 ((c15 (_ BitVec 64))) Bool (and (e84 c15) (e183 c15)))
(define-fun e185 ((c15 (_ BitVec 64))) Bool (= (e182 c15) (e91 c15)))
(define-fun e186 ((c15 (_ BitVec 64))) Bool (and (e135 c15) (e185 c15)))
(define-fun e187 ((c15 (_ BitVec 64))) Bool (= (e182 c15) (e102 c15)))
(define-fun e188 ((c15 (_ BitVec 64))) Bool (and (e138 c15) (e187 c15)))
(define-fun e189 ((c15 (_ BitVec 64))) Bool (bvule (e108 c15) (e182 c15)))
(define-fun e190 ((c15 (_ BitVec 64))) Bool (bvult (e182 c15) (e111 c15)))
(define-fun e191 ((c15 (_ BitVec 64))) Bool (and (e189 c15) (e190 c15)))
(define-fun e192 ((c15 (_ BitVec 64))) Bool (and (e144 c15) (e191 c15)))
(define-fun e193 ((c15 (_ BitVec 64))) (_ BitVec 64) (c33 (e182 c15) c15))
(define-fun e194 ((c15 (_ BitVec 64))) (_ BitVec 64) (ite (e192 c15) (e28 c15) (e193 c15)))
(define-fun e195 ((c15 (_ BitVec 64))) (_ BitVec 64) (ite (e188 c15) (e119 c15) (e194 c15)))
(define-fun e196 ((c15 (_ BitVec 64))) (_ BitVec 64) (ite (e186 c15) c99 (e195 c15)))
(define-fun e197 ((c15 (_ BitVec 64))) (_ BitVec 64) (ite (e184 c15) (e133 c15) (e196 c15)))
(define-fun e198 ((c15 (_ BitVec 64))) (_ BitVec 64) (bvor (ite (e43 c15) (e197 c15) (_ bv0 64)) (ite (e62 c15) (e193 c15) (_ bv0 64))))
(define-fun e199 ((c15 (_ BitVec 64))) (_ BitVec 64) (bvand (e181 c15) (e198 c15)))
(define-fun e200 ((c15 (_ BitVec 64))) Bool (= (e28 c15) (e199 c15)))
(define-fun e201 ((c15 (_ BitVec 64))) (_ BitVec 64) (_ bv37 64))
(define-fun e202 ((c15 (_ BitVec 64))) Bool (= (e201 c15) (e81 c15)))
(define-fun e203 ((c15 (_ BitVec 64))) Bool (and (e84 c15) (e202 c15)))
(define-fun e204 ((c15 (_ BitVec 64))) Bool (= (e201 c15) (e91 c15)))
(define-fun e205 ((c15 (_ BitVec 64))) Bool (and (e135 c15) (e204 c15)))
(define-fun e206 ((c15 (_ BitVec 64))) Bool (= (e201 c15) (e102 c15)))
(define-fun e207 ((c15 (_ BitVec 64))) Bool (and (e138 c15) (e206 c15)))
(define-fun e208 ((c15 (_ BitVec 64))) Bool (bvule (e108 c15) (e201 c15)))
(define-fun e209 ((c15 (_ BitVec 64))) Bool (bvult (e201 c15) (e111 c15)))
(define-fun e210 ((c15 (_ BitVec 64))) Bool (and (e208 c15) (e209 c15)))
(define-fun e211 ((c15 (_ BitVec 64))) Bool (and (e144 c15) (e210 c15)))
(define-fun e212 ((c15 (_ BitVec 64))) (_ BitVec 64) (c33 (e201 c15) c15))
(define-fun e213 ((c15 (_ BitVec 64))) (_ BitVec 64) (ite (e211 c15) (e28 c15) (e212 c15)))
(define-fun e214 ((c15 (_ BitVec 64))) (_ BitVec 64) (ite (e207 c15) (e119 c15) (e213 c15)))
(define-fun e215 ((c15 (_ BitVec 64))) (_ BitVec 64) (ite (e205 c15) c99 (e214 c15)))
(define-fun e216 ((c15 (_ BitVec 64))) (_ BitVec 64) (ite (e203 c15) (e133 c15) (e215 c15)))
(define-fun e217 ((c15 (_ BitVec 64))) (_ BitVec 64) (bvor (ite (e43 c15) (e216 c15) (_ bv0 64)) (ite (e62 c15) (e212 c15) (_ bv0 64))))
(define-fun e218 ((c15 (_ BitVec 64))) (_ BitVec 64) (bvand (e181 c15) (e217 c15)))
(define-fun e219 ((c15 (_ BitVec 64))) Bool (= (e28 c15) (e218 c15)))
(define-fun e220 ((c15 (_ BitVec 64))) Bool (and (e180 c15) (e200 c15) (e219 c15)))
(define-fun e221 ((c15 (_ BitVec 64))) Bool (= (e67 c15) (e70 c15)))
(define-fun e222 ((c15 (_ BitVec 64))) Bool (and (e65 c15) (e221 c15)))
(define-fun e223 ((c15 (_ BitVec 64))) Bool (not (e222 c15)))
(define-fun e224 ((c15 (_ BitVec 64))) Bool (or (e220 c15) (e223 c15)))
(define-fun e225 () Bool (forall ((c15 (_ BitVec 64))) (e224 c15)))
(define-fun e226 () (_ BitVec 8) (_ bv0 8))
(declare-fun c227 () (_ BitVec 8))
(define-fun e228 () Bool (= e226 c227))
(define-fun e229 () (_ BitVec 64) (_ bv2 64))
(define-fun e230 () Bool (bvult c16 e1))
(define-fun e231 () Bool (bvult c19 e1))
(define-fun e232 () (_ BitVec 64) (_ bv1 64))
(define-fun e233 () (_ BitVec 64) (_ bv16 64))
(define-fun e234 () (_ BitVec 64) (bvmul e233 c16))
(define-fun e235 () (_ BitVec 64) (bvudiv e234 e233))
(define-fun e236 () (_ BitVec 64) (c22 e235))
(define-fun e237 () Bool (= e232 e236))
(define-fun e238 () (_ BitVec 64) (bvmul e233 c19))
(define-fun e239 () (_ BitVec 64) (bvudiv e238 e233))
(define-fun e240 () (_ BitVec 64) (c22 e239))
(define-fun e241 () Bool (= e3 e240))
(define-fun e242 () (_ BitVec 64) (_ bv4096 64))
(define-fun e243 () (_ BitVec 64) (bvmul e242 c16))
(define-fun e244 () (_ BitVec 64) (bvadd e233 e243))
(define-fun e245 () (_ BitVec 64) (bvurem e244 e242))
(define-fun e246 () (_ BitVec 64) (_ bv8 64))
(define-fun e247 () (_ BitVec 64) (bvudiv e245 e246))
(define-fun e248 () (_ BitVec 64) (bvudiv e244 e242))
(define-fun e249 () (_ BitVec 64) (c33 e247 e248))
(define-fun e250 () Bool (= e3 e249))
(define-fun e251 () Bool (and e230 e231 e237 e241 e250))
(define-fun e252 () Bool (= c0 e239))
(define-fun e253 () (_ BitVec 64) (c22 c0))
(define-fun e254 () (_ BitVec 64) (ite e252 e229 e253))
(define-fun e255 () Bool (not e230))
(define-fun e256 () Bool (not e237))
(define-fun e257 () Bool (not e231))
(define-fun e258 () Bool (not e241))
(define-fun e259 () Bool (not e250))
(define-fun e260 () Bool (and e241 e259))
(define-fun e261 () Bool (or e258 e260))
(define-fun e262 () Bool (and e231 e261))
(define-fun e263 () Bool (or e257 e262))
(define-fun e264 () Bool (and e237 e263))
(define-fun e265 () Bool (or e256 e264))
(define-fun e266 () Bool (and e230 e265))
(define-fun e267 () Bool (or e255 e266))
(define-fun e268 () (_ BitVec 64) (bvor (ite e251 e254 (_ bv0 64)) (ite e267 e253 (_ bv0 64))))
(define-fun e269 () Bool (= e229 e268))
(define-fun e270 () Bool (and e2 e269))
(define-fun e271 () Bool (or e228 e270))
(define-fun e272 () Bool (and e2 e7 e11 e14 e76 e157 e160 e225 e271))
(define-fun e273 ((c15 (_ BitVec 64))) Bool (bvult (e48 c15) (e17 c15)))
(define-fun e274 ((c15 (_ BitVec 64))) Bool (= (e28 c15) (e68 c15)))
(define-fun e275 ((c15 (_ BitVec 64))) Bool (not (e274 c15)))
(define-fun e276 ((c15 (_ BitVec 64))) Bool (and (e65 c15) (e275 c15)))
(define-fun e277 ((c15 (_ BitVec 64))) Bool (not (e276 c15)))
(define-fun e278 ((c15 (_ BitVec 64))) Bool (or (e273 c15) (e277 c15)))
(define-fun e279 () Bool (forall ((c15 (_ BitVec 64))) (e278 c15)))
(define-fun e280 ((c15 (_ BitVec 64))) Bool (bvult (e146 c15) (e17 c15)))
(define-fun e281 ((c15 (_ BitVec 64))) Bool (= (e21 c15) (e68 c15)))
(define-fun e282 ((c15 (_ BitVec 64))) Bool (and (e65 c15) (e281 c15)))
(define-fun e283 ((c15 (_ BitVec 64))) Bool (not (e282 c15)))
(define-fun e284 ((c15 (_ BitVec 64))) Bool (or (e280 c15) (e283 c15)))
(define-fun e285 () Bool (forall ((c15 (_ BitVec 64))) (e284 c15)))
(define-fun e286 ((c15 (_ BitVec 64))) Bool (= c15 (e48 c15)))
(define-fun e287 ((c15 (_ BitVec 64))) Bool (or (e283 c15) (e286 c15)))
(define-fun e288 () Bool (forall ((c15 (_ BitVec 64))) (e287 c15)))
(define-fun e289 ((c15 (_ BitVec 64))) (_ BitVec 64) (bvand (e161 c15) (e173 c15)))
(define-fun e290 ((c15 (_ BitVec 64))) Bool (= (e28 c15) (e289 c15)))
(define-fun e291 ((c15 (_ BitVec 64))) (_ BitVec 64) (bvand (e181 c15) (e193 c15)))
(define-fun e292 ((c15 (_ BitVec 64))) Bool (= (e28 c15) (e291 c15)))
(define-fun e293 ((c15 (_ BitVec 64))) (_ BitVec 64) (bvand (e181 c15) (e212 c15)))
(define-fun e294 ((c15 (_ BitVec 64))) Bool (= (e28 c15) (e293 c15)))
(define-fun e295 ((c15 (_ BitVec 64))) Bool (and (e290 c15) (e292 c15) (e294 c15)))
(define-fun e296 ((c15 (_ BitVec 64))) Bool (= (e67 c15) (e68 c15)))
(define-fun e297 ((c15 (_ BitVec 64))) Bool (and (e65 c15) (e296 c15)))
(define-fun e298 ((c15 (_ BitVec 64))) Bool (not (e297 c15)))
(define-fun e299 ((c15 (_ BitVec 64))) Bool (or (e295 c15) (e298 c15)))
(define-fun e300 () Bool (forall ((c15 (_ BitVec 64))) (e299 c15)))
(define-fun e301 () Bool (= e229 e253))
(define-fun e302 () Bool (and e2 e301))
(define-fun e303 () Bool (or e228 e302))
(define-fun e304 () Bool (and e279 e285 e288 e300 e2 e303 e7 e11 e14))
(declare-fun c305 () (_ BitVec 64))
(define-fun e306 () Bool (= e3 c305))
(declare-fun c307 () (_ BitVec 64))
(define-fun e308 () Bool (= e3 c307))
(declare-fun c309 () (_ BitVec 64))
(define-fun e310 () Bool (= e3 c309))
(declare-fun c311 () (_ BitVec 64))
(define-fun e312 () Bool (= e3 c311))
(declare-fun c313 () (_ BitVec 64))
(define-fun e314 () Bool (= e3 c313))
(declare-fun c315 () (_ BitVec 64))
(define-fun e316 () Bool (= e3 c315))
(declare-fun c317 () (_ BitVec 64))
(define-fun e318 () Bool (= e3 c317))
(declare-fun c319 () (_ BitVec 64))
(define-fun e320 () Bool (= e3 c319))
(declare-fun c321 () (_ BitVec 64))
(define-fun e322 () Bool (= e3 c321))
(declare-fun c323 () (_ BitVec 64))
(declare-fun c324 () (_ BitVec 64))
(define-fun e325 () Bool (= c323 c324))
(declare-fun c326 () (_ BitVec 64))
(define-fun e327 () Bool (= e3 c326))
(declare-fun c328 () (_ BitVec 64))
(define-fun e329 () Bool (= e3 c328))
(declare-fun c330 () (_ BitVec 64))
(define-fun e331 () Bool (= e3 c330))
(declare-fun c332 () (_ BitVec 64))
(define-fun e333 () Bool (= e3 c332))
(declare-fun c334 () (_ BitVec 64))
(define-fun e335 () Bool (= e3 c334))
(declare-fun c336 () (_ BitVec 64))
(define-fun e337 () Bool (= e3 c336))
(declare-fun c338 () (_ BitVec 64))
(define-fun e339 () Bool (= e3 c338))
(declare-fun c340 () (_ BitVec 64))
(define-fun e341 () Bool (= e3 c340))
(declare-fun c342 () (_ BitVec 64))
(define-fun e343 () Bool (= e3 c342))
(declare-fun c344 () (_ BitVec 64))
(define-fun e345 () Bool (= e3 c344))
(declare-fun c346 () (_ BitVec 64))
(define-fun e347 () Bool (= e3 c346))
(declare-fun c348 () (_ BitVec 64))
(define-fun e349 () Bool (= e3 c348))
(declare-fun c350 () (_ BitVec 64))
(define-fun e351 () Bool (= e3 c350))
(declare-fun c352 () (_ BitVec 64))
(define-fun e353 () Bool (= e3 c352))
(declare-fun c354 () (_ BitVec 64))
(define-fun e355 () Bool (= e3 c354))
(declare-fun c356 () (_ BitVec 64))
(define-fun e357 () Bool (= e3 c356))
(declare-fun c358 () (_ BitVec 64))
(define-fun e359 () Bool (= e3 c358))
(declare-fun c360 () (_ BitVec 64))
(define-fun e361 () Bool (= e3 c360))
(declare-fun c362 () (_ BitVec 64))
(define-fun e363 () Bool (= e3 c362))
(declare-fun c364 () (_ BitVec 64))
(define-fun e365 () Bool (= e3 c364))
(declare-fun c366 () (_ BitVec 64))
(define-fun e367 () Bool (= e3 c366))
(declare-fun c368 () (_ BitVec 64))
(define-fun e369 () Bool (= e3 c368))
(declare-fun c370 () (_ BitVec 64))
(define-fun e371 () Bool (= e3 c370))
(declare-fun c372 () (_ BitVec 64))
(define-fun e373 () Bool (= e3 c372))
(declare-fun c374 () (_ BitVec 64))
(define-fun e375 () Bool (= e3 c374))
(declare-fun c376 () (_ BitVec 64))
(define-fun e377 () Bool (= e3 c376))
(declare-fun c378 () (_ BitVec 64))
(define-fun e379 () Bool (= e3 c378))
(declare-fun c380 () (_ BitVec 64))
(define-fun e381 () Bool (= e3 c380))
(declare-fun c382 () (_ BitVec 64))
(define-fun e383 () Bool (= e3 c382))
(declare-fun c384 () (_ BitVec 64))
(define-fun e385 () Bool (= e3 c384))
(declare-fun c386 () (_ BitVec 64))
(define-fun e387 () Bool (= e3 c386))
(declare-fun c388 () (_ BitVec 64))
(define-fun e389 () Bool (= e3 c388))
(define-fun e390 () Bool (and e306 e308 e310 e312 e314 e316 e318 e320 e322 e325 e327 e329 e331 e333 e335 e337 e339 e341 e343 e345 e347 e349 e351 e353 e355 e357 e359 e361 e363 e365 e367 e369 e371 e373 e375 e377 e379 e381 e383 e385 e387 e389))
(declare-fun c391 () (_ BitVec 64))
(declare-fun c392 () (_ BitVec 64))
(define-fun e393 () Bool (= c391 c392))
(declare-fun c394 () (_ BitVec 64))
(declare-fun c395 () (_ BitVec 64))
(define-fun e396 () Bool (= c394 c395))
(declare-fun c397 () (_ BitVec 64))
(declare-fun c398 () (_ BitVec 64))
(define-fun e399 () Bool (= c397 c398))
(declare-fun c400 () (_ BitVec 64))
(declare-fun c401 () (_ BitVec 64))
(define-fun e402 () Bool (= c400 c401))
(declare-fun c403 () (_ BitVec 64))
(declare-fun c404 () (_ BitVec 64))
(define-fun e405 () Bool (= c403 c404))
(declare-fun c406 () (_ BitVec 64))
(declare-fun c407 () (_ BitVec 64))
(define-fun e408 () Bool (= c406 c407))
(declare-fun c409 () (_ BitVec 64))
(declare-fun c410 () (_ BitVec 64))
(define-fun e411 () Bool (= c409 c410))
(declare-fun c412 () (_ BitVec 64))
(declare-fun c413 () (_ BitVec 64))
(define-fun e414 () Bool (= c412 c413))
(declare-fun c415 () (_ BitVec 64))
(declare-fun c416 () (_ BitVec 64))
(define-fun e417 () Bool (= c415 c416))
(declare-fun c418 () (_ BitVec 64))
(declare-fun c419 () (_ BitVec 64))
(define-fun e420 () Bool (= c418 c419))
(declare-fun c421 () (_ BitVec 64))
(declare-fun c422 () (_ BitVec 64))
(define-fun e423 () Bool (= c421 c422))
(declare-fun c424 () (_ BitVec 64))
(declare-fun c425 () (_ BitVec 64))
(define-fun e426 () Bool (= c424 c425))
(declare-fun c427 () (_ BitVec 64))
(declare-fun c428 () (_ BitVec 64))
(define-fun e429 () Bool (= c427 c428))
(declare-fun c430 () (_ BitVec 64))
(declare-fun c431 () (_ BitVec 64))
(define-fun e432 () Bool (= c430 c431))
(declare-fun c433 () (_ BitVec 64))
(declare-fun c434 () (_ BitVec 64))
(define-fun e435 () Bool (= c433 c434))
(declare-fun c436 () (_ BitVec 64))
(declare-fun c437 () (_ BitVec 64))
(define-fun e438 () Bool (= c436 c437))
(declare-fun c439 () (_ BitVec 64))
(declare-fun c440 () (_ BitVec 64))
(define-fun e441 () Bool (= c439 c440))
(declare-fun c442 () (_ BitVec 64))
(declare-fun c443 () (_ BitVec 64))
(define-fun e444 () Bool (= c442 c443))
(declare-fun c445 () (_ BitVec 64))
(declare-fun c446 () (_ BitVec 64))
(define-fun e447 () Bool (= c445 c446))
(declare-fun c448 () (_ BitVec 64))
(declare-fun c449 () (_ BitVec 64))
(define-fun e450 () Bool (= c448 c449))
(declare-fun c451 () (_ BitVec 64))
(declare-fun c452 () (_ BitVec 64))
(define-fun e453 () Bool (= c451 c452))
(declare-fun c454 () (_ BitVec 64))
(declare-fun c455 () (_ BitVec 64))
(define-fun e456 () Bool (= c454 c455))
(declare-fun c457 () (_ BitVec 64))
(declare-fun c458 () (_ BitVec 64))
(define-fun e459 () Bool (= c457 c458))
(declare-fun c460 () (_ BitVec 64))
(declare-fun c461 () (_ BitVec 64))
(define-fun e462 () Bool (= c460 c461))
(declare-fun c463 () (_ BitVec 64))
(declare-fun c464 () (_ BitVec 64))
(define-fun e465 () Bool (= c463 c464))
(declare-fun c466 () (_ BitVec 64))
(declare-fun c467 () (_ BitVec 64))
(define-fun e468 () Bool (= c466 c467))
(declare-fun c469 () (_ BitVec 64))
(declare-fun c470 () (_ BitVec 64))
(define-fun e471 () Bool (= c469 c470))
(declare-fun c472 () (_ BitVec 64))
(declare-fun c473 () (_ BitVec 64))
(define-fun e474 () Bool (= c472 c473))
(declare-fun c475 () (_ BitVec 64))
(declare-fun c476 () (_ BitVec 64))
(define-fun e477 () Bool (= c475 c476))
(declare-fun c478 () (_ BitVec 64))
(declare-fun c479 () (_ BitVec 64))
(define-fun e480 () Bool (= c478 c479))
(declare-fun c481 () (_ BitVec 64))
(declare-fun c482 () (_ BitVec 64))
(define-fun e483 () Bool (= c481 c482))
(declare-fun c484 () (_ BitVec 64))
(declare-fun c485 () (_ BitVec 64))
(define-fun e486 () Bool (= c484 c485))
(declare-fun c487 () (_ BitVec 64))
(declare-fun c488 () (_ BitVec 64))
(define-fun e489 () Bool (= c487 c488))
(declare-fun c490 () (_ BitVec 64))
(declare-fun c491 () (_ BitVec 64))
(define-fun e492 () Bool (= c490 c491))
(declare-fun c493 () (_ BitVec 64))
(declare-fun c494 () (_ BitVec 64))
(define-fun e495 () Bool (= c493 c494))
(declare-fun c496 () (_ BitVec 64))
(declare-fun c497 () (_ BitVec 64))
(define-fun e498 () Bool (= c496 c497))
(declare-fun c499 () (_ BitVec 64))
(define-fun e500 () Bool (= c499 c5))
(declare-fun c501 () (_ BitVec 64))
(declare-fun c502 () (_ BitVec 64))
(define-fun e503 () Bool (= c501 c502))
(declare-fun c504 () (_ BitVec 64))
(declare-fun c505 () (_ BitVec 64))
(define-fun e506 () Bool (= c504 c505))
(declare-fun c507 () (_ BitVec 64))
(declare-fun c508 () (_ BitVec 64))
(define-fun e509 () Bool (= c507 c508))
(declare-fun c510 () (_ BitVec 64))
(define-fun e511 () Bool (= c510 c12))
(declare-fun c512 () (_ BitVec 64))
(define-fun e513 () Bool (= c512 c9))
(define-fun e514 () Bool (and e393 e396 e399 e402 e405 e408 e411 e414 e417 e420 e423 e426 e429 e432 e435 e438 e441 e444 e447 e450 e453 e456 e459 e462 e465 e468 e471 e474 e477 e480 e483 e486 e489 e492 e495 e498 e500 e503 e506 e509 e511 e513))
(declare-fun c515 () (_ BitVec 64))
(define-fun e516 () Bool (= c515 c0))
(declare-fun c517 () Bool)
(define-fun e518 () Bool (not e228))
(define-fun e519 () Bool (and (=> c517 e518) (=> e518 c517)))
(declare-fun c521 ((_ BitVec 64)) (_ BitVec 64))
(define-fun e522 ((c520 (_ BitVec 64))) (_ BitVec 64) (c521 c520))
(define-fun e523 ((c520 (_ BitVec 64))) (_ BitVec 64) (c22 c520))
(define-fun e524 ((c520 (_ BitVec 64))) Bool (= (e522 c520) (e523 c520)))
(declare-fun c525 ((_ BitVec 64)) (_ BitVec 64))
(define-fun e526 ((c520 (_ BitVec 64))) (_ BitVec 64) (c525 c520))
(define-fun e527 ((c520 (_ BitVec 64))) (_ BitVec 64) (c47 c520))
(define-fun e528 ((c520 (_ BitVec 64))) Bool (= (e526 c520) (e527 c520)))
(define-fun e529 ((c520 (_ BitVec 64))) Bool (and (e524 c520) (e528 c520)))
(define-fun e530 ((c520 (_ BitVec 64))) (_ BitVec 64) (_ bv1024 64))
(define-fun e531 ((c520 (_ BitVec 64))) Bool (bvult c520 (e530 c520)))
(define-fun e532 ((c520 (_ BitVec 64))) Bool (not (e531 c520)))
(define-fun e533 ((c520 (_ BitVec 64))) Bool (or (e529 c520) (e532 c520)))
(define-fun e534 () Bool (forall ((c520 (_ BitVec 64))) (e533 c520)))
(declare-fun c536 ((_ BitVec 64) (_ BitVec 64)) (_ BitVec 64))
(define-fun e537 ((c520 (_ BitVec 64)) (c535 (_ BitVec 64))) (_ BitVec 64) (c536 c520 c535))
(define-fun e538 ((c520 (_ BitVec 64)) (c535 (_ BitVec 64))) (_ BitVec 64) (c33 c535 c520))
(define-fun e539 ((c520 (_ BitVec 64)) (c535 (_ BitVec 64))) Bool (= (e537 c520 c535) (e538 c520 c535)))
(define-fun e540 ((c520 (_ BitVec 64)) (c535 (_ BitVec 64))) (_ BitVec 64) (_ bv1024 64))
(define-fun e541 ((c520 (_ BitVec 64)) (c535 (_ BitVec 64))) Bool (bvult c520 (e540 c520 c535)))
(define-fun e542 ((c520 (_ BitVec 64)) (c535 (_ BitVec 64))) (_ BitVec 64) (_ bv512 64))
(define-fun e543 ((c520 (_ BitVec 64)) (c535 (_ BitVec 64))) Bool (bvult c535 (e542 c520 c535)))
(define-fun e544 ((c520 (_ BitVec 64)) (c535 (_ BitVec 64))) Bool (and (e541 c520 c535) (e543 c520 c535)))
(define-fun e545 ((c520 (_ BitVec 64)) (c535 (_ BitVec 64))) Bool (not (e544 c520 c535)))
(define-fun e546 ((c520 (_ BitVec 64)) (c535 (_ BitVec 64))) Bool (or (e539 c520 c535) (e545 c520 c535)))
(define-fun e547 () Bool (forall ((c520 (_ BitVec 64)) (c535 (_ BitVec 64))) (e546 c520 c535)))
(declare-fun c548 ((_ BitVec 64) (_ BitVec 64)) (_ BitVec 64))
(define-fun e549 ((c520 (_ BitVec 64)) (c535 (_ BitVec 64))) (_ BitVec 64) (c548 c520 c535))
(declare-fun c550 ((_ BitVec 64) (_ BitVec 64)) (_ BitVec 64))
(define-fun e551 ((c520 (_ BitVec 64)) (c535 (_ BitVec 64))) (_ BitVec 64) (c550 c535 c520))
(define-fun e552 ((c520 (_ BitVec 64)) (c535 (_ BitVec 64))) Bool (= (e549 c520 c535) (e551 c520 c535)))
(define-fun e553 ((c520 (_ BitVec 64)) (c535 (_ BitVec 64))) (_ BitVec 64) (_ bv256 64))
(define-fun e554 ((c520 (_ BitVec 64)) (c535 (_ BitVec 64))) Bool (bvult c520 (e553 c520 c535)))
(define-fun e555 ((c520 (_ BitVec 64)) (c535 (_ BitVec 64))) Bool (and (e543 c520 c535) (e554 c520 c535)))
(define-fun e556 ((c520 (_ BitVec 64)) (c535 (_ BitVec 64))) Bool (not (e555 c520 c535)))
(define-fun e557 ((c520 (_ BitVec 64)) (c535 (_ BitVec 64))) Bool (or (e552 c520 c535) (e556 c520 c535)))
(define-fun e558 () Bool (forall ((c520 (_ BitVec 64)) (c535 (_ BitVec 64))) (e557 c520 c535)))
(define-fun e559 () Bool (and e390 e514 e516 e519 e534 e547 e558))
(define-fun e560 () Bool (and e304 e559))
(define-fun e561 () Bool (not e560))
(define-fun e562 () Bool (or e272 e561))
(define-fun e563 () Bool (not e562))
(assert e563)
(check-sat)
